[VALIDATOR STDOUT]
Checking plan: /home/jfan5/Safety-gen/runs/benchmark/optic/delivery_20260205_114717/delivery/optic_results/delivery_size14_packages1_seed14001.plan
Plan executed successfully - checking goal
Plan valid
Final value: 48 

Successful plans:
Value: 48
 /home/jfan5/Safety-gen/runs/benchmark/optic/delivery_20260205_114717/delivery/optic_results/delivery_size14_packages1_seed14001.plan 48
